
  32    4
  10   10   10   10

   0   0   0   0   0   3 2 16 19 
   2   1   0   1   1   1 3 
   4   3   1   0   7   1 4 
   8   0   5   3   3   1 5 
   7   6   0   6   4   1 6 
   7   0   4   2   2   1 7 
   5   3   0   4   3   1 8 
   2   0   4   5   6   1 9 
   9   3   5   6   0   2 31 10 
   4   3   0   4   5   2 30 11 
   8   4   3   4   0   1 12 
   9   5   8   0   5   1 13 
   7   0   1   4   2   1 14 
   7   3   8   0  10   2 29 15 
   8   3   2   4   0   2 28 17 
  10   3   6   1   0   2 28 17 
   6   3   4   0   3   1 18 
   1   0   4   5   3   1 20 
   7   4   3   6   0   2 28 22 
   1   4   0   3   4   1 21 
   6   0   5   4   3   1 22 
   7   0   5   5   2   1 23 
   7   5   6   0   2   1 24 
   3   3   0   5   5   1 25 
   2   0   3   4   4   1 26 
   6   7   0   9   3   1 27 
   9   5   0   3   4   1 32
  10   6   4   4   0   1 32
   2   5   0   2   6   1 32
   2   5   1   0   5   1 32
   8   0   2   2   4   1 32
   0   0   0   0   0   0 
